HmaxDs = 1.000000
HmaxUB_percent = 1.119519
HmaxUB_real = 6636.341890
FTnetDs = 1.500000
FTnetUB_percent = 1.930624
FTnetUB_real = 24960.654157
TIFgap = 0.500000
LimCIPF = 57.77342935
SCIP version 1.1.0 [precision: 8 byte] [memory: block] [mode: optimized] [LP solver: Clp 1.8.2]
Copyright (c) 2002-2008 Konrad-Zuse-Zentrum fuer Informationstechnik Berlin (ZIB)

reading user parameter file </home/fabio/docs/hierarquia/models/scip.set>

read problem <data.N30.I1.s1.cluster2.T6.GL1.W3.TIFgap0.5.mps.gz>
============

original problem has 920 variables (465 bin, 0 int, 0 impl, 455 cont) and 265 constraints

solve problem
=============

presolving:
(round 1) 3 del vars, 3 del conss, 4 chg bounds, 0 chg sides, 90 chg coeffs, 0 upgd conss, 0 impls, 90 clqs
(round 2) 5 del vars, 3 del conss, 4 chg bounds, 1 chg sides, 90 chg coeffs, 0 upgd conss, 0 impls, 90 clqs
(round 3) 5 del vars, 3 del conss, 4 chg bounds, 3 chg sides, 90 chg coeffs, 0 upgd conss, 0 impls, 90 clqs
(round 4) 5 del vars, 4 del conss, 4 chg bounds, 3 chg sides, 90 chg coeffs, 91 upgd conss, 0 impls, 90 clqs
(round 5) 36 del vars, 4 del conss, 4 chg bounds, 3 chg sides, 90 chg coeffs, 91 upgd conss, 40796 impls, 84 clqs
(round 6) 36 del vars, 10 del conss, 4 chg bounds, 3 chg sides, 90 chg coeffs, 91 upgd conss, 40796 impls, 84 clqs
presolving (7 rounds):
 36 deleted vars, 10 deleted constraints, 4 tightened bounds, 0 added holes, 3 changed sides, 90 changed coefficients
 40796 implications, 84 cliques
presolved problem has 884 variables (434 bin, 0 int, 0 impl, 450 cont) and 255 constraints
      1 constraints of type <knapsack>
     84 constraints of type <setppc>
    170 constraints of type <linear>
Presolving Time: 0.53

 time | node  | left  |LP iter| mem |mdpt |frac |vars |cons |ccons|cols |rows |cuts |confs|strbr|  dualbound   | primalbound  |  gap   
  0.6s|     1 |     0 |   266 |3094k|   0 | 115 | 884 | 255 | 255 | 884 | 255 |   0 |   0 |   0 | 1.553749e+01 |      --      |    Inf 
  1.5s|     1 |     0 |  6276 |3372k|   0 | 110 | 884 | 255 | 255 | 884 | 295 |  40 |   0 |   0 | 2.909111e+02 |      --      |    Inf 
  2.0s|     1 |     0 |  7154 |3519k|   0 | 101 | 884 | 255 | 255 | 884 | 324 |  69 |   0 |   0 | 3.484394e+03 |      --      |    Inf 
  2.5s|     1 |     0 |  7886 |3628k|   0 | 116 | 884 | 255 | 255 | 884 | 367 | 112 |   0 |   0 | 4.354758e+03 |      --      |    Inf 
  3.0s|     1 |     0 |  8393 |3743k|   0 | 110 | 884 | 255 | 255 | 884 | 396 | 141 |   0 |   0 | 4.762956e+03 |      --      |    Inf 
  3.5s|     1 |     0 |  8831 |3819k|   0 | 127 | 884 | 255 | 255 | 884 | 426 | 171 |   0 |   0 | 4.890051e+03 |      --      |    Inf 
  4.1s|     1 |     0 |  9230 |3886k|   0 | 135 | 884 | 255 | 255 | 884 | 456 | 201 |   0 |   0 | 4.983126e+03 |      --      |    Inf 
  4.7s|     1 |     0 |  9745 |3965k|   0 | 138 | 884 | 255 | 255 | 884 | 484 | 229 |   0 |   0 | 5.110595e+03 |      --      |    Inf 
  5.4s|     1 |     0 | 10252 |4042k|   0 | 145 | 884 | 255 | 255 | 884 | 509 | 254 |   0 |   0 | 5.233293e+03 |      --      |    Inf 
  6.1s|     1 |     0 | 10984 |4091k|   0 | 142 | 884 | 255 | 255 | 884 | 533 | 278 |   0 |   0 | 5.268702e+03 |      --      |    Inf 
  6.8s|     1 |     0 | 11390 |4125k|   0 | 140 | 884 | 255 | 255 | 884 | 552 | 297 |   0 |   0 | 5.277661e+03 |      --      |    Inf 
  6.9s|     1 |     0 | 11427 |4125k|   0 | 147 | 884 | 255 | 255 | 884 | 554 | 299 |   0 |   0 | 5.278434e+03 |      --      |    Inf 
 13.6s|     1 |     2 | 11427 |4132k|   0 | 147 | 884 | 255 | 255 | 884 | 554 | 299 |   0 |  17 | 5.278434e+03 |      --      |    Inf 
 72.3s|   100 |     7 | 89370 |4227k|  16 | 102 | 884 | 308 | 229 | 884 | 398 | 299 |  53 | 830 | 5.526774e+03 |      --      |    Inf 

SCIP Status        : problem is solved [infeasible]
Solving Time (sec) : 95.48
Solving Nodes      : 172
Primal Bound       : +1.00000000000000e+20 (0 solutions)
Dual Bound         : +1.00000000000000e+20
Gap                : 0.00 %

primal solution:
================

no solution available

Statistics
==========

SCIP Status        : problem is solved [infeasible]
Solving Time       :      95.48
Original Problem   :
  Problem name     : labtel
  Variables        : 920 (465 binary, 0 integer, 0 implicit integer, 455 continuous)
  Constraints      : 265 initial, 265 maximal
Presolved Problem  :
  Problem name     : t_labtel
  Variables        : 884 (434 binary, 0 integer, 0 implicit integer, 450 continuous)
  Constraints      : 255 initial, 340 maximal
Presolvers         :       Time  FixedVars   AggrVars   ChgTypes  ChgBounds   AddHoles    DelCons   ChgSides   ChgCoefs
  trivial          :       0.00          0          0          0          0          0          0          0          0
  dualfix          :       0.00          0          0          0          0          0          0          0          0
  boundshift       :       0.00          0          0          0          0          0          0          0          0
  inttobinary      :       0.00          0          0          0          0          0          0          0          0
  implics          :       0.00          0          0          0          0          0          0          0          0
  probing          :       0.51         31          0          0          0          0          0          0          0
  knapsack         :       0.00          0          0          0          0          0          0          0          0
  setppc           :       0.00          0          0          0          0          0          6          0          0
  linear           :       0.01          0          5          0          4          0          4          3         90
  logicor          :       0.00          0          0          0          0          0          0          0          0
  root node        :          -          0          -          -          0          -          -          -          -
Constraints        :     Number  #Separate #Propagate    #EnfoLP    #EnfoPS    Cutoffs    DomReds       Cuts      Conss   Children
  integral         :          0          0          0         94          0          0          2          0          0        186
  knapsack         :          1         12       1770          0          0          0          0          0          0          0
  setppc           :         84         12       1770          0          0          8      13362          0          0          0
  linear           :        170         12       1762          0          0         36       2709          0          0          0
  logicor          :          0+         0        219          0          0         15        145          0          0          0
  countsols        :          0          0          0          0          0          0          0          0          0          0
Constraint Timings :  TotalTime   Separate  Propagate     EnfoLP     EnfoPS
  integral         :      35.09       0.00       0.00      35.09       0.00
  knapsack         :       0.01       0.01       0.00       0.00       0.00
  setppc           :       0.14       0.00       0.14       0.00       0.00
  linear           :       0.43       0.01       0.42       0.00       0.00
  logicor          :       0.00       0.00       0.00       0.00       0.00
  countsols        :       0.00       0.00       0.00       0.00       0.00
Propagators        :       Time      Calls    Cutoffs    DomReds
  rootredcost      :       0.01          0          0          0
  pseudoobj        :       0.03        631          1          0
Conflict Analysis  :       Time      Calls    Success  Conflicts   Literals    Reconvs ReconvLits   LP Iters
  propagation      :       0.00         58         51        119       17.2          0        0.0          -
  infeasible LP    :       0.04         33          7         29       28.8          0        0.0          0
  bound exceed. LP :       0.00          0          0          0        0.0          0        0.0          0
  strong branching :       0.00          0          0          0        0.0          0        0.0          0
  pseudo solution  :       0.00          0          0          0        0.0          0        0.0          -
  applied globally :          -          -          -         85       10.4          -          -          -
  applied locally  :          -          -          -          0        0.0          -          -          -
Separators         :       Time      Calls    Cutoffs    DomReds       Cuts      Conss
  cut pool         :       0.00         11          -          -         60          -    (maximal pool size: 604)
  redcost          :       0.00        105          0          0          0          0
  impliedbounds    :       0.01         12          0          0          0          0
  intobj           :       0.00          0          0          0          0          0
  gomory           :       0.37         12          0          0         10          0
  strongcg         :       0.28         12          0          0          0          0
  cmir             :       2.02         10          0          0        532          0
  flowcover        :       1.09         10          0          0         70          0
  clique           :       0.04         12          0          0          0          0
  zerohalf         :       0.00          0          0          0          0          0
  mcf              :       0.00          0          0          0          0          0
Pricers            :       Time      Calls       Vars
  problem variables:       0.00          0          0
Branching Rules    :       Time      Calls    Cutoffs    DomReds       Cuts      Conss   Children
  relpscost        :      35.09         94          0          2          0          0        186
  pscost           :       0.00          0          0          0          0          0          0
  inference        :       0.00          0          0          0          0          0          0
  mostinf          :       0.00          0          0          0          0          0          0
  leastinf         :       0.00          0          0          0          0          0          0
  fullstrong       :       0.00          0          0          0          0          0          0
  allfullstrong    :       0.00          0          0          0          0          0          0
  random           :       0.00          0          0          0          0          0          0
Primal Heuristics  :       Time      Calls      Found
  LP solutions     :       0.00          -          0
  pseudo solutions :       0.00          -          0
  oneopt           :       0.00          0          0
  pscostdiving     :       0.00          0          0
  fracdiving       :       0.00          0          0
  veclendiving     :       0.00          0          0
  objpscostdiving  :       0.00          0          0
  rootsoldiving    :       0.00          0          0
  linesearchdiving :       0.00          0          0
  guideddiving     :       0.00          0          0
  crossover        :       0.00          0          0
  coefdiving       :       0.23          1          0
  simplerounding   :       0.00          0          0
  rounding         :       0.00        104          0
  shifting         :       0.04         16          0
  intshifting      :       0.00          1          0
  fixandinfer      :       0.00          0          0
  feaspump         :       0.66          1          0
  intdiving        :       0.00          0          0
  actconsdiving    :       0.00          0          0
  octane           :       0.00          0          0
  rens             :       5.77          1          0
  rins             :       0.00          0          0
  localbranching   :       0.00          0          0
  mutation         :       0.00          0          0
  dins             :       0.00          0          0
LP                 :       Time      Calls Iterations  Iter/call   Iter/sec
  primal LP        :       6.37          2      15785    7892.50    2478.02
  dual LP          :      42.49        185     101676     549.60    2392.94
  barrier LP       :       0.00          0          0       0.00          -
  diving/probing LP:       0.86         51       6057     118.76    7043.02
  strong branching :      35.08       1229     138222     112.47    3940.19
    (at root node) :          -         17       2588     152.24          -
  conflict analysis:       0.00          0          0       0.00          -
B&B Tree           :
  number of runs   :          1
  nodes            :        172
  nodes (total)    :        172
  nodes left       :          0
  max depth        :         19
  max depth (total):         19
  backtracks       :         20 (11.6%)
  delayed cutoffs  :         15
  repropagations   :        153 (2657 domain reductions, 10 cutoffs)
  avg switch length:       3.30
  switching time   :       0.09
Solution           :
  Solutions found  :          0 (0 improvements)
  Primal Bound     : infeasible
  Dual Bound       :          -
  Gap              :       0.00 %
  Root Dual Bound  : +5.27843430666639e+03
